p cnf 906 2557
e 466 467 0
a 458 0
e 468 469 0
a 465 0
e 470 471 472 473 0
a 454 0
e 474 475 0
a 461 0
e 476 0
a 464 0
e 477 478 479 480 481 482 483 484 0
a 455 456 457 0
e 485 486 487 0
a 462 0
e 488 489 490 491 492 493 494 495 0
a 459 460 0
e 496 497 498 499 500 0
a 463 0
e 1 2 3 4 5 6 7 8 9 10 11 12 13 14 15 16 17 18 19 20 21 22 23 24 25 26 27 28 29 30 31 32 33 34 35 36 37 38 39 40 41 42 43 44 45 46 47 48 49 50 51 52 53 54 55 56 57 58 59 60 61 62 63 64 65 66 67 68 69 70 71 72 73 74 75 76 77 78 79 80 81 82 83 84 85 86 87 88 89 90 91 92 93 94 95 96 97 98 99 100 101 102 103 104 105 106 107 108 109 110 111 112 113 114 115 116 117 118 119 120 121 122 123 124 125 126 127 128 129 130 131 132 133 134 135 136 137 138 139 140 141 142 143 144 145 146 147 148 149 150 151 152 153 154 155 156 157 158 159 160 161 162 163 164 165 166 167 168 169 170 171 172 173 174 175 176 177 178 179 180 181 182 183 184 185 186 187 188 189 190 191 192 193 194 195 196 197 198 199 200 201 202 203 204 205 206 207 208 209 210 211 212 213 214 215 216 217 218 219 220 221 222 223 224 225 226 227 228 229 230 231 232 233 234 235 236 237 238 239 240 241 242 243 244 245 246 247 248 249 250 251 252 253 254 255 256 257 258 259 260 261 262 263 264 265 266 267 268 269 270 271 272 273 274 275 276 277 278 279 280 281 282 283 284 285 286 287 288 289 290 291 292 293 294 295 296 297 298 299 300 301 302 303 304 305 306 307 308 309 310 311 312 313 314 315 316 317 318 319 320 321 322 323 324 325 326 327 328 329 330 331 332 333 334 335 336 337 338 339 340 341 342 343 344 345 346 347 348 349 350 351 352 353 354 355 356 357 358 359 360 361 362 363 364 365 366 367 368 369 370 371 372 373 374 375 376 377 378 379 380 381 382 383 384 385 386 387 388 389 390 391 392 393 394 395 396 397 398 399 400 401 402 403 404 405 406 407 408 409 410 411 412 413 414 415 416 417 418 419 420 421 422 423 424 425 426 427 428 429 430 431 432 433 434 435 436 437 438 439 440 441 442 443 444 445 446 447 448 449 450 451 452 453 501 502 503 504 505 506 507 508 509 510 511 512 513 514 515 516 517 518 519 520 521 522 523 524 525 526 527 528 529 530 531 532 533 534 535 536 537 538 539 540 541 542 543 544 545 546 547 548 549 550 551 552 553 554 555 556 557 558 559 560 561 562 563 564 565 566 567 568 569 570 571 572 573 574 575 576 577 578 579 580 581 582 583 584 585 586 587 588 589 590 591 592 593 594 595 596 597 598 599 600 601 602 603 604 605 606 607 608 609 610 611 612 613 614 615 616 617 618 619 620 621 622 623 624 625 626 627 628 629 630 631 632 633 634 635 636 637 638 639 640 641 642 643 644 645 646 647 648 649 650 651 652 653 654 655 656 657 658 659 660 661 662 663 664 665 666 667 668 669 670 671 672 673 674 675 676 677 678 679 680 681 682 683 684 685 686 687 688 689 690 691 692 693 694 695 696 697 698 699 700 701 702 703 704 705 706 707 708 709 710 711 712 713 714 715 716 717 718 719 720 721 722 723 724 725 726 727 728 729 730 731 732 733 734 735 736 737 738 739 740 741 742 743 744 745 746 747 748 749 750 751 752 753 754 755 756 757 758 759 760 761 762 763 764 765 766 767 768 769 770 771 772 773 774 775 776 777 778 779 780 781 782 783 784 785 786 787 788 789 790 791 792 793 794 795 796 797 798 799 800 801 802 803 804 805 806 807 808 809 810 811 812 813 814 815 816 817 818 819 820 821 822 823 824 825 826 827 828 829 830 831 832 833 834 835 836 837 838 839 840 841 842 843 844 845 846 847 848 849 850 851 852 853 854 855 856 857 858 859 860 861 862 863 864 865 866 867 868 869 870 871 872 873 874 875 876 877 878 879 880 881 882 883 884 885 886 887 888 889 890 891 892 893 894 895 896 897 898 899 900 901 902 903 904 905 906 0
-42 -1 0
-42 5 0
42 -5 1 0
-43 1 0
-43 -5 0
43 5 -1 0
44 -42 0
44 -43 0
-44 43 42 0
-45 -9 0
-45 13 0
45 -13 9 0
-46 9 0
-46 -13 0
46 13 -9 0
47 -45 0
47 -46 0
-47 46 45 0
-48 -44 0
-48 47 0
48 -47 44 0
-49 44 0
-49 -47 0
49 47 -44 0
50 -48 0
50 -49 0
-50 49 48 0
-51 33 0
-51 41 0
51 -41 -33 0
-52 -17 0
-52 18 0
52 -18 17 0
-53 17 0
-53 -18 0
53 18 -17 0
54 -52 0
54 -53 0
-54 53 52 0
-55 -19 0
-55 20 0
55 -20 19 0
-56 19 0
-56 -20 0
56 20 -19 0
57 -55 0
57 -56 0
-57 56 55 0
-58 -54 0
-58 57 0
58 -57 54 0
-59 54 0
-59 -57 0
59 57 -54 0
60 -58 0
60 -59 0
-60 59 58 0
-61 -21 0
-61 22 0
61 -22 21 0
-62 21 0
-62 -22 0
62 22 -21 0
63 -61 0
63 -62 0
-63 62 61 0
-64 -23 0
-64 24 0
64 -24 23 0
-65 23 0
-65 -24 0
65 24 -23 0
66 -64 0
66 -65 0
-66 65 64 0
-67 -63 0
-67 66 0
67 -66 63 0
-68 63 0
-68 -66 0
68 66 -63 0
69 -67 0
69 -68 0
-69 68 67 0
-70 -60 0
-70 69 0
70 -69 60 0
-71 60 0
-71 -69 0
71 69 -60 0
72 -70 0
72 -71 0
-72 71 70 0
-73 -51 0
-73 72 0
73 -72 51 0
-74 51 0
-74 -72 0
74 72 -51 0
75 -73 0
75 -74 0
-75 74 73 0
-76 -50 0
-76 75 0
76 -75 50 0
-77 50 0
-77 -75 0
77 75 -50 0
78 -76 0
78 -77 0
-78 77 76 0
-79 -17 0
-79 21 0
79 -21 17 0
-80 17 0
-80 -21 0
80 21 -17 0
81 -79 0
81 -80 0
-81 80 79 0
-82 -25 0
-82 29 0
82 -29 25 0
-83 25 0
-83 -29 0
83 29 -25 0
84 -82 0
84 -83 0
-84 83 82 0
-85 -81 0
-85 84 0
85 -84 81 0
-86 81 0
-86 -84 0
86 84 -81 0
87 -85 0
87 -86 0
-87 86 85 0
-88 37 0
-88 41 0
88 -41 -37 0
-89 -1 0
-89 2 0
89 -2 1 0
-90 1 0
-90 -2 0
90 2 -1 0
91 -89 0
91 -90 0
-91 90 89 0
-92 -3 0
-92 4 0
92 -4 3 0
-93 3 0
-93 -4 0
93 4 -3 0
94 -92 0
94 -93 0
-94 93 92 0
-95 -91 0
-95 94 0
95 -94 91 0
-96 91 0
-96 -94 0
96 94 -91 0
97 -95 0
97 -96 0
-97 96 95 0
-98 -5 0
-98 6 0
98 -6 5 0
-99 5 0
-99 -6 0
99 6 -5 0
100 -98 0
100 -99 0
-100 99 98 0
-101 -7 0
-101 8 0
101 -8 7 0
-102 7 0
-102 -8 0
102 8 -7 0
103 -101 0
103 -102 0
-103 102 101 0
-104 -100 0
-104 103 0
104 -103 100 0
-105 100 0
-105 -103 0
105 103 -100 0
106 -104 0
106 -105 0
-106 105 104 0
-107 -97 0
-107 106 0
107 -106 97 0
-108 97 0
-108 -106 0
108 106 -97 0
109 -107 0
109 -108 0
-109 108 107 0
-110 -88 0
-110 109 0
110 -109 88 0
-111 88 0
-111 -109 0
111 109 -88 0
112 -110 0
112 -111 0
-112 111 110 0
-113 -87 0
-113 112 0
113 -112 87 0
-114 87 0
-114 -112 0
114 112 -87 0
115 -113 0
115 -114 0
-115 114 113 0
-116 -18 0
-116 22 0
116 -22 18 0
-117 18 0
-117 -22 0
117 22 -18 0
118 -116 0
118 -117 0
-118 117 116 0
-119 -26 0
-119 30 0
119 -30 26 0
-120 26 0
-120 -30 0
120 30 -26 0
121 -119 0
121 -120 0
-121 120 119 0
-122 -118 0
-122 121 0
122 -121 118 0
-123 118 0
-123 -121 0
123 121 -118 0
124 -122 0
124 -123 0
-124 123 122 0
-125 38 0
-125 41 0
125 -41 -38 0
-126 -9 0
-126 10 0
126 -10 9 0
-127 9 0
-127 -10 0
127 10 -9 0
128 -126 0
128 -127 0
-128 127 126 0
-129 -11 0
-129 12 0
129 -12 11 0
-130 11 0
-130 -12 0
130 12 -11 0
131 -129 0
131 -130 0
-131 130 129 0
-132 -128 0
-132 131 0
132 -131 128 0
-133 128 0
-133 -131 0
133 131 -128 0
134 -132 0
134 -133 0
-134 133 132 0
-135 -13 0
-135 14 0
135 -14 13 0
-136 13 0
-136 -14 0
136 14 -13 0
137 -135 0
137 -136 0
-137 136 135 0
-138 -15 0
-138 16 0
138 -16 15 0
-139 15 0
-139 -16 0
139 16 -15 0
140 -138 0
140 -139 0
-140 139 138 0
-141 -137 0
-141 140 0
141 -140 137 0
-142 137 0
-142 -140 0
142 140 -137 0
143 -141 0
143 -142 0
-143 142 141 0
-144 -134 0
-144 143 0
144 -143 134 0
-145 134 0
-145 -143 0
145 143 -134 0
146 -144 0
146 -145 0
-146 145 144 0
-147 -125 0
-147 146 0
147 -146 125 0
-148 125 0
-148 -146 0
148 146 -125 0
149 -147 0
149 -148 0
-149 148 147 0
-150 -124 0
-150 149 0
150 -149 124 0
-151 124 0
-151 -149 0
151 149 -124 0
152 -150 0
152 -151 0
-152 151 150 0
-153 -152 0
153 152 0
-154 -19 0
-154 23 0
154 -23 19 0
-155 19 0
-155 -23 0
155 23 -19 0
156 -154 0
156 -155 0
-156 155 154 0
-157 -27 0
-157 31 0
157 -31 27 0
-158 27 0
-158 -31 0
158 31 -27 0
159 -157 0
159 -158 0
-159 158 157 0
-160 -156 0
-160 159 0
160 -159 156 0
-161 156 0
-161 -159 0
161 159 -156 0
162 -160 0
162 -161 0
-162 161 160 0
-163 39 0
-163 41 0
163 -41 -39 0
-164 -97 0
-164 134 0
164 -134 97 0
-165 97 0
-165 -134 0
165 134 -97 0
166 -164 0
166 -165 0
-166 165 164 0
-167 -163 0
-167 166 0
167 -166 163 0
-168 163 0
-168 -166 0
168 166 -163 0
169 -167 0
169 -168 0
-169 168 167 0
-170 -162 0
-170 169 0
170 -169 162 0
-171 162 0
-171 -169 0
171 169 -162 0
172 -170 0
172 -171 0
-172 171 170 0
-173 -20 0
-173 24 0
173 -24 20 0
-174 20 0
-174 -24 0
174 24 -20 0
175 -173 0
175 -174 0
-175 174 173 0
-176 -28 0
-176 32 0
176 -32 28 0
-177 28 0
-177 -32 0
177 32 -28 0
178 -176 0
178 -177 0
-178 177 176 0
-179 -175 0
-179 178 0
179 -178 175 0
-180 175 0
-180 -178 0
180 178 -175 0
181 -179 0
181 -180 0
-181 180 179 0
-182 40 0
-182 41 0
182 -41 -40 0
-183 -106 0
-183 143 0
183 -143 106 0
-184 106 0
-184 -143 0
184 143 -106 0
185 -183 0
185 -184 0
-185 184 183 0
-186 -182 0
-186 185 0
186 -185 182 0
-187 182 0
-187 -185 0
187 185 -182 0
188 -186 0
188 -187 0
-188 187 186 0
-189 -181 0
-189 188 0
189 -188 181 0
-190 181 0
-190 -188 0
190 188 -181 0
191 -189 0
191 -190 0
-191 190 189 0
-192 -191 0
192 191 0
-193 -78 0
193 78 0
-194 -2 0
-194 6 0
194 -6 2 0
-195 2 0
-195 -6 0
195 6 -2 0
196 -194 0
196 -195 0
-196 195 194 0
-197 -10 0
-197 14 0
197 -14 10 0
-198 10 0
-198 -14 0
198 14 -10 0
199 -197 0
199 -198 0
-199 198 197 0
-200 -196 0
-200 199 0
200 -199 196 0
-201 196 0
-201 -199 0
201 199 -196 0
202 -200 0
202 -201 0
-202 201 200 0
-203 34 0
-203 41 0
203 -41 -34 0
-204 -25 0
-204 26 0
204 -26 25 0
-205 25 0
-205 -26 0
205 26 -25 0
206 -204 0
206 -205 0
-206 205 204 0
-207 -27 0
-207 28 0
207 -28 27 0
-208 27 0
-208 -28 0
208 28 -27 0
209 -207 0
209 -208 0
-209 208 207 0
-210 -206 0
-210 209 0
210 -209 206 0
-211 206 0
-211 -209 0
211 209 -206 0
212 -210 0
212 -211 0
-212 211 210 0
-213 -29 0
-213 30 0
213 -30 29 0
-214 29 0
-214 -30 0
214 30 -29 0
215 -213 0
215 -214 0
-215 214 213 0
-216 -31 0
-216 32 0
216 -32 31 0
-217 31 0
-217 -32 0
217 32 -31 0
218 -216 0
218 -217 0
-218 217 216 0
-219 -215 0
-219 218 0
219 -218 215 0
-220 215 0
-220 -218 0
220 218 -215 0
221 -219 0
221 -220 0
-221 220 219 0
-222 -212 0
-222 221 0
222 -221 212 0
-223 212 0
-223 -221 0
223 221 -212 0
224 -222 0
224 -223 0
-224 223 222 0
-225 -203 0
-225 224 0
225 -224 203 0
-226 203 0
-226 -224 0
226 224 -203 0
227 -225 0
227 -226 0
-227 226 225 0
-228 -202 0
-228 227 0
228 -227 202 0
-229 202 0
-229 -227 0
229 227 -202 0
230 -228 0
230 -229 0
-230 229 228 0
-231 -230 0
231 230 0
-232 -3 0
-232 7 0
232 -7 3 0
-233 3 0
-233 -7 0
233 7 -3 0
234 -232 0
234 -233 0
-234 233 232 0
-235 -11 0
-235 15 0
235 -15 11 0
-236 11 0
-236 -15 0
236 15 -11 0
237 -235 0
237 -236 0
-237 236 235 0
-238 -234 0
-238 237 0
238 -237 234 0
-239 234 0
-239 -237 0
239 237 -234 0
240 -238 0
240 -239 0
-240 239 238 0
-241 35 0
-241 41 0
241 -41 -35 0
-242 -60 0
-242 212 0
242 -212 60 0
-243 60 0
-243 -212 0
243 212 -60 0
244 -242 0
244 -243 0
-244 243 242 0
-245 -241 0
-245 244 0
245 -244 241 0
-246 241 0
-246 -244 0
246 244 -241 0
247 -245 0
247 -246 0
-247 246 245 0
-248 -240 0
-248 247 0
248 -247 240 0
-249 240 0
-249 -247 0
249 247 -240 0
250 -248 0
250 -249 0
-250 249 248 0
-251 -250 0
251 250 0
-252 -4 0
-252 8 0
252 -8 4 0
-253 4 0
-253 -8 0
253 8 -4 0
254 -252 0
254 -253 0
-254 253 252 0
-255 -12 0
-255 16 0
255 -16 12 0
-256 12 0
-256 -16 0
256 16 -12 0
257 -255 0
257 -256 0
-257 256 255 0
-258 -254 0
-258 257 0
258 -257 254 0
-259 254 0
-259 -257 0
259 257 -254 0
260 -258 0
260 -259 0
-260 259 258 0
-261 36 0
-261 41 0
261 -41 -36 0
-262 -69 0
-262 221 0
262 -221 69 0
-263 69 0
-263 -221 0
263 221 -69 0
264 -262 0
264 -263 0
-264 263 262 0
-265 -261 0
-265 264 0
265 -264 261 0
-266 261 0
-266 -264 0
266 264 -261 0
267 -265 0
267 -266 0
-267 266 265 0
-268 -260 0
-268 267 0
268 -267 260 0
-269 260 0
-269 -267 0
269 267 -260 0
270 -268 0
270 -269 0
-270 269 268 0
-271 193 0
-271 231 0
-271 251 0
-271 270 0
271 -270 -251 -231 -193 0
-272 -78 0
272 78 0
-273 -230 0
273 230 0
-274 -270 0
274 270 0
-275 272 0
-275 273 0
-275 250 0
-275 274 0
275 -274 -273 -272 -250 0
-276 -78 0
276 78 0
-277 -250 0
277 250 0
-278 -270 0
278 270 0
-279 276 0
-279 230 0
-279 277 0
-279 278 0
279 -278 -277 -276 -230 0
-280 -230 0
280 230 0
-281 -250 0
281 250 0
-282 -270 0
282 270 0
-283 78 0
-283 280 0
-283 281 0
-283 282 0
283 -282 -281 -280 -78 0
-284 -271 0
-284 -275 0
-284 -279 0
-284 -283 0
284 283 279 275 271 0
-285 -284 0
285 284 0
-286 115 0
-286 153 0
-286 172 0
-286 192 0
-286 285 0
286 -285 -192 -172 -153 -115 0
-287 78 0
-287 286 0
287 -286 -78 0
-288 -1 0
-288 287 0
288 -287 1 0
-289 1 0
-289 -287 0
289 287 -1 0
290 -288 0
290 -289 0
-290 289 288 0
-291 230 0
-291 286 0
291 -286 -230 0
-292 -2 0
-292 291 0
292 -291 2 0
-293 2 0
-293 -291 0
293 291 -2 0
294 -292 0
294 -293 0
-294 293 292 0
-295 250 0
-295 286 0
295 -286 -250 0
-296 -3 0
-296 295 0
296 -295 3 0
-297 3 0
-297 -295 0
297 295 -3 0
298 -296 0
298 -297 0
-298 297 296 0
-299 270 0
-299 286 0
299 -286 -270 0
-300 -4 0
-300 299 0
300 -299 4 0
-301 4 0
-301 -299 0
301 299 -4 0
302 -300 0
302 -301 0
-302 301 300 0
-303 -152 0
303 152 0
-304 -172 0
304 172 0
-305 115 0
-305 303 0
-305 304 0
-305 191 0
-305 285 0
305 -304 -303 -285 -191 -115 0
-306 78 0
-306 305 0
306 -305 -78 0
-307 -5 0
-307 306 0
307 -306 5 0
-308 5 0
-308 -306 0
308 306 -5 0
309 -307 0
309 -308 0
-309 308 307 0
-310 230 0
-310 305 0
310 -305 -230 0
-311 -6 0
-311 310 0
311 -310 6 0
-312 6 0
-312 -310 0
312 310 -6 0
313 -311 0
313 -312 0
-313 312 311 0
-314 250 0
-314 305 0
314 -305 -250 0
-315 -7 0
-315 314 0
315 -314 7 0
-316 7 0
-316 -314 0
316 314 -7 0
317 -315 0
317 -316 0
-317 316 315 0
-318 270 0
-318 305 0
318 -305 -270 0
-319 -8 0
-319 318 0
319 -318 8 0
-320 8 0
-320 -318 0
320 318 -8 0
321 -319 0
321 -320 0
-321 320 319 0
-322 -115 0
322 115 0
-323 -191 0
323 191 0
-324 322 0
-324 152 0
-324 172 0
-324 323 0
-324 285 0
324 -323 -322 -285 -172 -152 0
-325 78 0
-325 324 0
325 -324 -78 0
-326 -9 0
-326 325 0
326 -325 9 0
-327 9 0
-327 -325 0
327 325 -9 0
328 -326 0
328 -327 0
-328 327 326 0
-329 230 0
-329 324 0
329 -324 -230 0
-330 -10 0
-330 329 0
330 -329 10 0
-331 10 0
-331 -329 0
331 329 -10 0
332 -330 0
332 -331 0
-332 331 330 0
-333 250 0
-333 324 0
333 -324 -250 0
-334 -11 0
-334 333 0
334 -333 11 0
-335 11 0
-335 -333 0
335 333 -11 0
336 -334 0
336 -335 0
-336 335 334 0
-337 270 0
-337 324 0
337 -324 -270 0
-338 -12 0
-338 337 0
338 -337 12 0
-339 12 0
-339 -337 0
339 337 -12 0
340 -338 0
340 -339 0
-340 339 338 0
-341 -115 0
341 115 0
-342 -172 0
342 172 0
-343 341 0
-343 152 0
-343 342 0
-343 191 0
-343 285 0
343 -342 -341 -285 -191 -152 0
-344 78 0
-344 343 0
344 -343 -78 0
-345 -13 0
-345 344 0
345 -344 13 0
-346 13 0
-346 -344 0
346 344 -13 0
347 -345 0
347 -346 0
-347 346 345 0
-348 230 0
-348 343 0
348 -343 -230 0
-349 -14 0
-349 348 0
349 -348 14 0
-350 14 0
-350 -348 0
350 348 -14 0
351 -349 0
351 -350 0
-351 350 349 0
-352 250 0
-352 343 0
352 -343 -250 0
-353 -15 0
-353 352 0
353 -352 15 0
-354 15 0
-354 -352 0
354 352 -15 0
355 -353 0
355 -354 0
-355 354 353 0
-356 270 0
-356 343 0
356 -343 -270 0
-357 -16 0
-357 356 0
357 -356 16 0
-358 16 0
-358 -356 0
358 356 -16 0
359 -357 0
359 -358 0
-359 358 357 0
-360 -230 0
360 230 0
-361 -270 0
361 270 0
-362 -115 0
362 115 0
-363 -152 0
363 152 0
-364 -172 0
364 172 0
-365 362 0
-365 363 0
-365 364 0
-365 191 0
365 -364 -363 -362 -191 0
-366 -115 0
366 115 0
-367 -152 0
367 152 0
-368 -191 0
368 191 0
-369 366 0
-369 367 0
-369 172 0
-369 368 0
369 -368 -367 -366 -172 0
-370 -115 0
370 115 0
-371 -172 0
371 172 0
-372 -191 0
372 191 0
-373 370 0
-373 152 0
-373 371 0
-373 372 0
373 -372 -371 -370 -152 0
-374 -152 0
374 152 0
-375 -172 0
375 172 0
-376 -191 0
376 191 0
-377 115 0
-377 374 0
-377 375 0
-377 376 0
377 -376 -375 -374 -115 0
-378 -365 0
-378 -369 0
-378 -373 0
-378 -377 0
378 377 373 369 365 0
-379 -378 0
379 378 0
-380 78 0
-380 360 0
-380 250 0
-380 361 0
-380 379 0
380 -379 -361 -360 -250 -78 0
-381 115 0
-381 380 0
381 -380 -115 0
-382 -17 0
-382 381 0
382 -381 17 0
-383 17 0
-383 -381 0
383 381 -17 0
384 -382 0
384 -383 0
-384 383 382 0
-385 152 0
-385 380 0
385 -380 -152 0
-386 -18 0
-386 385 0
386 -385 18 0
-387 18 0
-387 -385 0
387 385 -18 0
388 -386 0
388 -387 0
-388 387 386 0
-389 172 0
-389 380 0
389 -380 -172 0
-390 -19 0
-390 389 0
390 -389 19 0
-391 19 0
-391 -389 0
391 389 -19 0
392 -390 0
392 -391 0
-392 391 390 0
-393 191 0
-393 380 0
393 -380 -191 0
-394 -20 0
-394 393 0
394 -393 20 0
-395 20 0
-395 -393 0
395 393 -20 0
396 -394 0
396 -395 0
-396 395 394 0
-397 -230 0
397 230 0
-398 -250 0
398 250 0
-399 78 0
-399 397 0
-399 398 0
-399 270 0
-399 379 0
399 -398 -397 -379 -270 -78 0
-400 115 0
-400 399 0
400 -399 -115 0
-401 -21 0
-401 400 0
401 -400 21 0
-402 21 0
-402 -400 0
402 400 -21 0
403 -401 0
403 -402 0
-403 402 401 0
-404 152 0
-404 399 0
404 -399 -152 0
-405 -22 0
-405 404 0
405 -404 22 0
-406 22 0
-406 -404 0
406 404 -22 0
407 -405 0
407 -406 0
-407 406 405 0
-408 172 0
-408 399 0
408 -399 -172 0
-409 -23 0
-409 408 0
409 -408 23 0
-410 23 0
-410 -408 0
410 408 -23 0
411 -409 0
411 -410 0
-411 410 409 0
-412 191 0
-412 399 0
412 -399 -191 0
-413 -24 0
-413 412 0
413 -412 24 0
-414 24 0
-414 -412 0
414 412 -24 0
415 -413 0
415 -414 0
-415 414 413 0
-416 -78 0
416 78 0
-417 -270 0
417 270 0
-418 416 0
-418 230 0
-418 250 0
-418 417 0
-418 379 0
418 -417 -416 -379 -250 -230 0
-419 115 0
-419 418 0
419 -418 -115 0
-420 -25 0
-420 419 0
420 -419 25 0
-421 25 0
-421 -419 0
421 419 -25 0
422 -420 0
422 -421 0
-422 421 420 0
-423 152 0
-423 418 0
423 -418 -152 0
-424 -26 0
-424 423 0
424 -423 26 0
-425 26 0
-425 -423 0
425 423 -26 0
426 -424 0
426 -425 0
-426 425 424 0
-427 172 0
-427 418 0
427 -418 -172 0
-428 -27 0
-428 427 0
428 -427 27 0
-429 27 0
-429 -427 0
429 427 -27 0
430 -428 0
430 -429 0
-430 429 428 0
-431 191 0
-431 418 0
431 -418 -191 0
-432 -28 0
-432 431 0
432 -431 28 0
-433 28 0
-433 -431 0
433 431 -28 0
434 -432 0
434 -433 0
-434 433 432 0
-435 -78 0
435 78 0
-436 -250 0
436 250 0
-437 435 0
-437 230 0
-437 436 0
-437 270 0
-437 379 0
437 -436 -435 -379 -270 -230 0
-438 115 0
-438 437 0
438 -437 -115 0
-439 -29 0
-439 438 0
439 -438 29 0
-440 29 0
-440 -438 0
440 438 -29 0
441 -439 0
441 -440 0
-441 440 439 0
-442 152 0
-442 437 0
442 -437 -152 0
-443 -30 0
-443 442 0
443 -442 30 0
-444 30 0
-444 -442 0
444 442 -30 0
445 -443 0
445 -444 0
-445 444 443 0
-446 172 0
-446 437 0
446 -437 -172 0
-447 -31 0
-447 446 0
447 -446 31 0
-448 31 0
-448 -446 0
448 446 -31 0
449 -447 0
449 -448 0
-449 448 447 0
-450 191 0
-450 437 0
450 -437 -191 0
-451 -32 0
-451 450 0
451 -450 32 0
-452 32 0
-452 -450 0
452 450 -32 0
453 -451 0
453 -452 0
-453 452 451 0
-501 -1 0
-501 5 0
501 -5 1 0
-502 1 0
-502 -5 0
502 5 -1 0
503 -501 0
503 -502 0
-503 502 501 0
-504 -9 0
-504 13 0
504 -13 9 0
-505 9 0
-505 -13 0
505 13 -9 0
506 -504 0
506 -505 0
-506 505 504 0
-507 -503 0
-507 506 0
507 -506 503 0
-508 503 0
-508 -506 0
508 506 -503 0
509 -507 0
509 -508 0
-509 508 507 0
-510 33 0
-510 41 0
510 -41 -33 0
-511 -17 0
-511 18 0
511 -18 17 0
-512 17 0
-512 -18 0
512 18 -17 0
513 -511 0
513 -512 0
-513 512 511 0
-514 -19 0
-514 20 0
514 -20 19 0
-515 19 0
-515 -20 0
515 20 -19 0
516 -514 0
516 -515 0
-516 515 514 0
-517 -513 0
-517 516 0
517 -516 513 0
-518 513 0
-518 -516 0
518 516 -513 0
519 -517 0
519 -518 0
-519 518 517 0
-520 -21 0
-520 22 0
520 -22 21 0
-521 21 0
-521 -22 0
521 22 -21 0
522 -520 0
522 -521 0
-522 521 520 0
-523 -522 0
465 -523 0
-465 523 522 0
-524 522 0
-465 -524 0
465 524 -522 0
525 -523 0
525 -524 0
-525 524 523 0
-526 -519 0
-526 525 0
526 -525 519 0
-527 519 0
-527 -525 0
527 525 -519 0
528 -526 0
528 -527 0
-528 527 526 0
-529 -510 0
-529 528 0
529 -528 510 0
-530 510 0
-530 -528 0
530 528 -510 0
531 -529 0
531 -530 0
-531 530 529 0
-532 -509 0
-532 531 0
532 -531 509 0
-533 509 0
-533 -531 0
533 531 -509 0
534 -532 0
534 -533 0
-534 533 532 0
-535 -17 0
-535 21 0
535 -21 17 0
-536 17 0
-536 -21 0
536 21 -17 0
537 -535 0
537 -536 0
-537 536 535 0
-538 -25 0
-538 29 0
538 -29 25 0
-539 25 0
-539 -29 0
539 29 -25 0
540 -538 0
540 -539 0
-540 539 538 0
-541 -537 0
-541 540 0
541 -540 537 0
-542 537 0
-542 -540 0
542 540 -537 0
543 -541 0
543 -542 0
-543 542 541 0
-544 37 0
-544 41 0
544 -41 -37 0
-545 -1 0
-545 2 0
545 -2 1 0
-546 1 0
-546 -2 0
546 2 -1 0
547 -545 0
547 -546 0
-547 546 545 0
-548 -547 0
458 -548 0
-458 548 547 0
-549 547 0
-458 -549 0
458 549 -547 0
550 -548 0
550 -549 0
-550 549 548 0
-551 -5 0
-551 6 0
551 -6 5 0
-552 5 0
-552 -6 0
552 6 -5 0
553 -551 0
553 -552 0
-553 552 551 0
-554 -7 0
-554 8 0
554 -8 7 0
-555 7 0
-555 -8 0
555 8 -7 0
556 -554 0
556 -555 0
-556 555 554 0
-557 -553 0
-557 556 0
557 -556 553 0
-558 553 0
-558 -556 0
558 556 -553 0
559 -557 0
559 -558 0
-559 558 557 0
-560 -550 0
-560 559 0
560 -559 550 0
-561 550 0
-561 -559 0
561 559 -550 0
562 -560 0
562 -561 0
-562 561 560 0
-563 -544 0
-563 562 0
563 -562 544 0
-564 544 0
-564 -562 0
564 562 -544 0
565 -563 0
565 -564 0
-565 564 563 0
-566 -543 0
-566 565 0
566 -565 543 0
-567 543 0
-567 -565 0
567 565 -543 0
568 -566 0
568 -567 0
-568 567 566 0
-569 -18 0
-569 22 0
569 -22 18 0
-570 18 0
-570 -22 0
570 22 -18 0
571 -569 0
571 -570 0
-571 570 569 0
-572 -26 0
-572 30 0
572 -30 26 0
-573 26 0
-573 -30 0
573 30 -26 0
574 -572 0
574 -573 0
-574 573 572 0
-575 -571 0
-575 574 0
575 -574 571 0
-576 571 0
-576 -574 0
576 574 -571 0
577 -575 0
577 -576 0
-577 576 575 0
-578 38 0
-578 41 0
578 -41 -38 0
-579 -9 0
-579 10 0
579 -10 9 0
-580 9 0
-580 -10 0
580 10 -9 0
581 -579 0
581 -580 0
-581 580 579 0
-582 -11 0
-582 12 0
582 -12 11 0
-583 11 0
-583 -12 0
583 12 -11 0
584 -582 0
584 -583 0
-584 583 582 0
-585 -581 0
-585 584 0
585 -584 581 0
-586 581 0
-586 -584 0
586 584 -581 0
587 -585 0
587 -586 0
-587 586 585 0
-588 -13 0
-588 14 0
588 -14 13 0
-589 13 0
-589 -14 0
589 14 -13 0
590 -588 0
590 -589 0
-590 589 588 0
-591 -15 0
-591 16 0
591 -16 15 0
-592 15 0
-592 -16 0
592 16 -15 0
593 -591 0
593 -592 0
-593 592 591 0
-594 -590 0
-594 593 0
594 -593 590 0
-595 590 0
-595 -593 0
595 593 -590 0
596 -594 0
596 -595 0
-596 595 594 0
-597 -587 0
-597 596 0
597 -596 587 0
-598 587 0
-598 -596 0
598 596 -587 0
599 -597 0
599 -598 0
-599 598 597 0
-600 -578 0
-600 599 0
600 -599 578 0
-601 578 0
-601 -599 0
601 599 -578 0
602 -600 0
602 -601 0
-602 601 600 0
-603 -577 0
-603 602 0
603 -602 577 0
-604 577 0
-604 -602 0
604 602 -577 0
605 -603 0
605 -604 0
-605 604 603 0
-606 -605 0
606 605 0
-607 -19 0
-607 23 0
607 -23 19 0
-608 19 0
-608 -23 0
608 23 -19 0
609 -607 0
609 -608 0
-609 608 607 0
-610 -27 0
-610 31 0
610 -31 27 0
-611 27 0
-611 -31 0
611 31 -27 0
612 -610 0
612 -611 0
-612 611 610 0
-613 -609 0
-613 612 0
613 -612 609 0
-614 609 0
-614 -612 0
614 612 -609 0
615 -613 0
615 -614 0
-615 614 613 0
-616 39 0
-616 41 0
616 -41 -39 0
-617 -550 0
-617 587 0
617 -587 550 0
-618 550 0
-618 -587 0
618 587 -550 0
619 -617 0
619 -618 0
-619 618 617 0
-620 -616 0
-620 619 0
620 -619 616 0
-621 616 0
-621 -619 0
621 619 -616 0
622 -620 0
622 -621 0
-622 621 620 0
-623 -615 0
-623 622 0
623 -622 615 0
-624 615 0
-624 -622 0
624 622 -615 0
625 -623 0
625 -624 0
-625 624 623 0
-626 -20 0
-626 24 0
626 -24 20 0
-627 20 0
-627 -24 0
627 24 -20 0
628 -626 0
628 -627 0
-628 627 626 0
-629 -28 0
-629 32 0
629 -32 28 0
-630 28 0
-630 -32 0
630 32 -28 0
631 -629 0
631 -630 0
-631 630 629 0
-632 -628 0
-632 631 0
632 -631 628 0
-633 628 0
-633 -631 0
633 631 -628 0
634 -632 0
634 -633 0
-634 633 632 0
-635 -559 0
-635 596 0
635 -596 559 0
-636 559 0
-636 -596 0
636 596 -559 0
637 -635 0
637 -636 0
-637 636 635 0
-461 -638 0
-638 637 0
461 638 -637 0
461 -639 0
-639 -637 0
-461 639 637 0
640 -638 0
640 -639 0
-640 639 638 0
-641 -634 0
-641 640 0
641 -640 634 0
-642 634 0
-642 -640 0
642 640 -634 0
643 -641 0
643 -642 0
-643 642 641 0
-644 -643 0
644 643 0
-645 568 0
-645 606 0
-645 625 0
-645 644 0
460 -645 0
-460 645 -644 -625 -606 -568 0
-646 534 0
-646 645 0
646 -645 -534 0
-647 -1 0
-647 646 0
647 -646 1 0
-648 1 0
-648 -646 0
648 646 -1 0
649 -647 0
649 -648 0
-649 648 647 0
457 -650 0
-650 645 0
-457 650 -645 0
-651 -2 0
-651 650 0
651 -650 2 0
-652 2 0
-652 -650 0
652 650 -2 0
653 -651 0
653 -652 0
-653 652 651 0
-654 -3 0
-654 7 0
654 -7 3 0
-655 3 0
-655 -7 0
655 7 -3 0
656 -654 0
656 -655 0
-656 655 654 0
-657 -11 0
-657 15 0
657 -15 11 0
-658 11 0
-658 -15 0
658 15 -11 0
659 -657 0
659 -658 0
-659 658 657 0
-660 -656 0
-660 659 0
660 -659 656 0
-661 656 0
-661 -659 0
661 659 -656 0
662 -660 0
662 -661 0
-662 661 660 0
-663 35 0
-663 41 0
663 -41 -35 0
-664 -25 0
-664 26 0
664 -26 25 0
-665 25 0
-665 -26 0
665 26 -25 0
666 -664 0
666 -665 0
-666 665 664 0
-667 -27 0
-667 28 0
667 -28 27 0
-668 27 0
-668 -28 0
668 28 -27 0
669 -667 0
669 -668 0
-669 668 667 0
-670 -666 0
-670 669 0
670 -669 666 0
-671 666 0
-671 -669 0
671 669 -666 0
672 -670 0
672 -671 0
-672 671 670 0
-673 -519 0
-673 672 0
673 -672 519 0
-674 519 0
-674 -672 0
674 672 -519 0
675 -673 0
675 -674 0
-675 674 673 0
-676 -663 0
-676 675 0
676 -675 663 0
-677 663 0
-677 -675 0
677 675 -663 0
678 -676 0
678 -677 0
-678 677 676 0
-679 -662 0
-679 678 0
679 -678 662 0
-680 662 0
-680 -678 0
680 678 -662 0
681 -679 0
681 -680 0
-681 680 679 0
-682 681 0
-682 645 0
682 -681 -645 0
-683 -3 0
-683 682 0
683 -682 3 0
-684 3 0
-684 -682 0
684 682 -3 0
685 -683 0
685 -684 0
-685 684 683 0
-686 -4 0
-686 8 0
686 -8 4 0
-687 4 0
-687 -8 0
687 8 -4 0
688 -686 0
688 -687 0
-688 687 686 0
-689 -12 0
-689 16 0
689 -16 12 0
-690 12 0
-690 -16 0
690 16 -12 0
691 -689 0
691 -690 0
-691 690 689 0
-692 -688 0
-692 691 0
692 -691 688 0
-693 688 0
-693 -691 0
693 691 -688 0
694 -692 0
694 -693 0
-694 693 692 0
-695 36 0
-695 41 0
695 -41 -36 0
-696 -525 0
454 -696 0
-454 696 525 0
-697 525 0
-454 -697 0
454 697 -525 0
698 -696 0
698 -697 0
-698 697 696 0
-699 -695 0
-699 698 0
699 -698 695 0
-700 695 0
-700 -698 0
700 698 -695 0
701 -699 0
701 -700 0
-701 700 699 0
-702 -694 0
-702 701 0
702 -701 694 0
-703 694 0
-703 -701 0
703 701 -694 0
704 -702 0
704 -703 0
-704 703 702 0
-705 704 0
-705 645 0
705 -704 -645 0
-706 -4 0
-706 705 0
706 -705 4 0
-707 4 0
-707 -705 0
707 705 -4 0
708 -706 0
708 -707 0
-708 707 706 0
-709 -605 0
709 605 0
-710 -625 0
710 625 0
-711 568 0
-711 709 0
-711 710 0
-711 643 0
460 -711 0
-460 711 -710 -709 -643 -568 0
-712 534 0
-712 711 0
712 -711 -534 0
-713 -5 0
-713 712 0
713 -712 5 0
-714 5 0
-714 -712 0
714 712 -5 0
715 -713 0
715 -714 0
-715 714 713 0
457 -716 0
-716 711 0
-457 716 -711 0
-717 -6 0
-717 716 0
717 -716 6 0
-718 6 0
-718 -716 0
718 716 -6 0
719 -717 0
719 -718 0
-719 718 717 0
-720 681 0
-720 711 0
720 -711 -681 0
-721 -7 0
-721 720 0
721 -720 7 0
-722 7 0
-722 -720 0
722 720 -7 0
723 -721 0
723 -722 0
-723 722 721 0
-724 704 0
-724 711 0
724 -711 -704 0
-725 -8 0
-725 724 0
725 -724 8 0
-726 8 0
-726 -724 0
726 724 -8 0
727 -725 0
727 -726 0
-727 726 725 0
-728 534 0
463 -728 0
-463 728 -534 0
-729 -9 0
-729 728 0
729 -728 9 0
-730 9 0
-730 -728 0
730 728 -9 0
731 -729 0
731 -730 0
-731 730 729 0
457 -732 0
463 -732 0
-457 -463 732 0
-733 -10 0
-733 732 0
733 -732 10 0
-734 10 0
-734 -732 0
734 732 -10 0
735 -733 0
735 -734 0
-735 734 733 0
-736 681 0
463 -736 0
-463 736 -681 0
-737 -11 0
-737 736 0
737 -736 11 0
-738 11 0
-738 -736 0
738 736 -11 0
739 -737 0
739 -738 0
-739 738 737 0
-740 704 0
463 -740 0
-463 740 -704 0
-741 -12 0
-741 740 0
741 -740 12 0
-742 12 0
-742 -740 0
742 740 -12 0
743 -741 0
743 -742 0
-743 742 741 0
-744 534 0
459 -744 0
-459 744 -534 0
-745 -13 0
-745 744 0
745 -744 13 0
-746 13 0
-746 -744 0
746 744 -13 0
747 -745 0
747 -746 0
-747 746 745 0
457 -748 0
459 -748 0
-457 -459 748 0
-749 -14 0
-749 748 0
749 -748 14 0
-750 14 0
-750 -748 0
750 748 -14 0
751 -749 0
751 -750 0
-751 750 749 0
-752 681 0
459 -752 0
-459 752 -681 0
-753 -15 0
-753 752 0
753 -752 15 0
-754 15 0
-754 -752 0
754 752 -15 0
755 -753 0
755 -754 0
-755 754 753 0
-756 704 0
459 -756 0
-459 756 -704 0
-757 -16 0
-757 756 0
757 -756 16 0
-758 16 0
-758 -756 0
758 756 -16 0
759 -757 0
759 -758 0
-759 758 757 0
-457 -760 0
457 760 0
-761 -704 0
761 704 0
-762 -568 0
762 568 0
-763 -605 0
763 605 0
-764 -625 0
764 625 0
-765 762 0
-765 763 0
-765 764 0
-765 643 0
765 -764 -763 -762 -643 0
-766 -568 0
766 568 0
-767 -605 0
767 605 0
-768 -643 0
768 643 0
-769 766 0
-769 767 0
-769 625 0
-769 768 0
769 -768 -767 -766 -625 0
-770 -568 0
770 568 0
-771 -625 0
771 625 0
-772 -643 0
772 643 0
-773 770 0
-773 605 0
-773 771 0
-773 772 0
773 -772 -771 -770 -605 0
-774 -605 0
774 605 0
-775 -625 0
775 625 0
-776 568 0
-776 774 0
-776 775 0
464 -776 0
-464 776 -775 -774 -568 0
-777 -765 0
-777 -769 0
-777 -773 0
-777 -776 0
777 776 773 769 765 0
-778 -777 0
778 777 0
-779 534 0
-779 760 0
-779 681 0
-779 761 0
-779 778 0
779 -778 -761 -760 -681 -534 0
-780 568 0
-780 779 0
780 -779 -568 0
-781 -17 0
-781 780 0
781 -780 17 0
-782 17 0
-782 -780 0
782 780 -17 0
783 -781 0
783 -782 0
-783 782 781 0
-784 605 0
-784 779 0
784 -779 -605 0
-785 -18 0
-785 784 0
785 -784 18 0
-786 18 0
-786 -784 0
786 784 -18 0
787 -785 0
787 -786 0
-787 786 785 0
-788 625 0
-788 779 0
788 -779 -625 0
-789 -19 0
-789 788 0
789 -788 19 0
-790 19 0
-790 -788 0
790 788 -19 0
791 -789 0
791 -790 0
-791 790 789 0
-792 643 0
-792 779 0
792 -779 -643 0
-793 -20 0
-793 792 0
793 -792 20 0
-794 20 0
-794 -792 0
794 792 -20 0
795 -793 0
795 -794 0
-795 794 793 0
-457 -796 0
457 796 0
-797 -681 0
797 681 0
-798 534 0
-798 796 0
-798 797 0
-798 704 0
-798 778 0
798 -797 -796 -778 -704 -534 0
-799 568 0
-799 798 0
799 -798 -568 0
-800 -21 0
-800 799 0
800 -799 21 0
-801 21 0
-801 -799 0
801 799 -21 0
802 -800 0
802 -801 0
-802 801 800 0
-803 605 0
-803 798 0
803 -798 -605 0
-804 -22 0
-804 803 0
804 -803 22 0
-805 22 0
-805 -803 0
805 803 -22 0
806 -804 0
806 -805 0
-806 805 804 0
-807 625 0
-807 798 0
807 -798 -625 0
-808 -23 0
-808 807 0
808 -807 23 0
-809 23 0
-809 -807 0
809 807 -23 0
810 -808 0
810 -809 0
-810 809 808 0
-811 643 0
-811 798 0
811 -798 -643 0
-812 -24 0
-812 811 0
812 -811 24 0
-813 24 0
-813 -811 0
813 811 -24 0
814 -812 0
814 -813 0
-814 813 812 0
-815 568 0
456 -815 0
-456 815 -568 0
-816 -25 0
-816 815 0
816 -815 25 0
-817 25 0
-817 -815 0
817 815 -25 0
818 -816 0
818 -817 0
-818 817 816 0
-819 605 0
456 -819 0
-456 819 -605 0
-820 -26 0
-820 819 0
820 -819 26 0
-821 26 0
-821 -819 0
821 819 -26 0
822 -820 0
822 -821 0
-822 821 820 0
-823 -534 0
823 534 0
-824 -681 0
824 681 0
-825 823 0
457 -825 0
-825 824 0
-825 704 0
-825 778 0
-457 825 -824 -823 -778 -704 0
-826 568 0
-826 825 0
826 -825 -568 0
-827 -29 0
-827 826 0
827 -826 29 0
-828 29 0
-828 -826 0
828 826 -29 0
829 -827 0
829 -828 0
-829 828 827 0
-830 605 0
-830 825 0
830 -825 -605 0
-831 -30 0
-831 830 0
831 -830 30 0
-832 30 0
-832 -830 0
832 830 -30 0
833 -831 0
833 -832 0
-833 832 831 0
-834 625 0
-834 825 0
834 -825 -625 0
-835 -31 0
-835 834 0
835 -834 31 0
-836 31 0
-836 -834 0
836 834 -31 0
837 -835 0
837 -836 0
-837 836 835 0
-838 643 0
-838 825 0
838 -825 -643 0
-839 -32 0
-839 838 0
839 -838 32 0
-840 32 0
-840 -838 0
840 838 -32 0
841 -839 0
841 -840 0
-841 840 839 0
-842 -2 0
-842 6 0
842 -6 2 0
-843 2 0
-843 -6 0
843 6 -2 0
844 -842 0
844 -843 0
-844 843 842 0
-845 -10 0
-845 14 0
845 -14 10 0
-846 10 0
-846 -14 0
846 14 -10 0
847 -845 0
847 -846 0
-847 846 845 0
-848 -844 0
-848 847 0
848 -847 844 0
-849 844 0
-849 -847 0
849 847 -844 0
850 -848 0
850 -849 0
-850 849 848 0
-851 34 0
-851 41 0
851 -41 -34 0
-852 -672 0
454 -852 0
-454 852 672 0
-853 672 0
-454 -853 0
454 853 -672 0
854 -852 0
854 -853 0
-854 853 852 0
-855 -851 0
-855 854 0
855 -854 851 0
-856 851 0
-856 -854 0
856 854 -851 0
857 -855 0
857 -856 0
-857 856 855 0
-858 -704 0
858 704 0
-859 -534 0
859 534 0
-457 -860 0
457 860 0
-861 -681 0
861 681 0
-862 859 0
-862 860 0
-862 861 0
-862 704 0
862 -861 -860 -859 -704 0
-863 -534 0
863 534 0
-457 -864 0
457 864 0
-865 -704 0
865 704 0
-866 863 0
-866 864 0
-866 681 0
-866 865 0
866 -865 -864 -863 -681 0
-867 -534 0
867 534 0
-868 -681 0
868 681 0
-869 -704 0
869 704 0
-870 867 0
457 -870 0
-870 868 0
-870 869 0
-457 870 -869 -868 -867 0
-457 -871 0
457 871 0
-872 -681 0
872 681 0
-873 -704 0
873 704 0
-874 534 0
-874 871 0
-874 872 0
-874 873 0
874 -873 -872 -871 -534 0
-875 -649 -290 0
-875 649 290 0
875 -649 290 0
875 649 -290 0
-876 -653 -294 0
-876 653 294 0
876 -653 294 0
876 653 -294 0
-877 -685 -298 0
-877 685 298 0
877 -685 298 0
877 685 -298 0
-878 -708 -302 0
-878 708 302 0
878 -708 302 0
878 708 -302 0
-879 -715 -309 0
-879 715 309 0
879 -715 309 0
879 715 -309 0
-880 -719 -313 0
-880 719 313 0
880 -719 313 0
880 719 -313 0
-881 -723 -317 0
-881 723 317 0
881 -723 317 0
881 723 -317 0
-882 -727 -321 0
-882 727 321 0
882 -727 321 0
882 727 -321 0
-883 -731 -328 0
-883 731 328 0
883 -731 328 0
883 731 -328 0
-884 -735 -332 0
-884 735 332 0
884 -735 332 0
884 735 -332 0
-885 -739 -336 0
-885 739 336 0
885 -739 336 0
885 739 -336 0
-886 -743 -340 0
-886 743 340 0
886 -743 340 0
886 743 -340 0
-887 -747 -347 0
-887 747 347 0
887 -747 347 0
887 747 -347 0
-888 -751 -351 0
-888 751 351 0
888 -751 351 0
888 751 -351 0
-889 -755 -355 0
-889 755 355 0
889 -755 355 0
889 755 -355 0
-890 -759 -359 0
-890 759 359 0
890 -759 359 0
890 759 -359 0
-891 -783 -384 0
-891 783 384 0
891 -783 384 0
891 783 -384 0
-892 -787 -388 0
-892 787 388 0
892 -787 388 0
892 787 -388 0
-893 -791 -392 0
-893 791 392 0
893 -791 392 0
893 791 -392 0
-894 -795 -396 0
-894 795 396 0
894 -795 396 0
894 795 -396 0
-895 -802 -403 0
-895 802 403 0
895 -802 403 0
895 802 -403 0
-896 -806 -407 0
-896 806 407 0
896 -806 407 0
896 806 -407 0
-897 -810 -411 0
-897 810 411 0
897 -810 411 0
897 810 -411 0
-898 -814 -415 0
-898 814 415 0
898 -814 415 0
898 814 -415 0
-899 -818 -422 0
-899 818 422 0
899 -818 422 0
899 818 -422 0
-900 -822 -426 0
-900 822 426 0
900 -822 426 0
900 822 -426 0
-462 -901 -430 0
462 -901 430 0
-462 901 430 0
462 901 -430 0
-455 -902 -434 0
455 -902 434 0
-455 902 434 0
455 902 -434 0
-903 -829 -441 0
-903 829 441 0
903 -829 441 0
903 829 -441 0
-904 -833 -445 0
-904 833 445 0
904 -833 445 0
904 833 -445 0
-905 -837 -449 0
-905 837 449 0
905 -837 449 0
905 837 -449 0
-906 -841 -453 0
-906 841 453 0
906 -841 453 0
906 841 -453 0
906 905 904 903 902 901 900 899 898 897 896 895 894 893 892 891 890 889 888 887 886 885 884 883 882 881 880 879 878 877 876 875 0
-466 3 0
466 -3 0
-467 4 0
467 -4 0
-468 23 0
468 -23 0
-469 24 0
469 -24 0
-470 29 0
470 -29 0
-471 30 0
471 -30 0
-472 31 0
472 -31 0
-473 32 0
473 -32 0
-474 40 0
474 -40 0
-475 41 0
475 -41 0
-476 643 0
476 -643 0
-477 28 0
477 -28 0
-478 643 0
478 -643 0
-479 534 0
479 -534 0
-480 850 0
480 -850 0
-481 857 0
481 -857 0
-482 681 0
482 -681 0
-483 858 0
483 -858 0
-484 778 0
484 -778 0
-485 27 0
485 -27 0
-486 625 0
486 -625 0
456 -487 0
-456 487 0
-488 568 0
488 -568 0
-489 605 0
489 -605 0
-490 625 0
490 -625 0
-491 643 0
491 -643 0
-492 862 0
492 -862 0
-493 866 0
493 -866 0
-494 870 0
494 -870 0
-495 874 0
495 -874 0
-496 568 0
496 -568 0
-497 605 0
497 -605 0
-498 625 0
498 -625 0
-499 643 0
499 -643 0
460 -500 0
-460 500 0
